data;

param num_top:=5;

#nodes and edges of the physical network
param n := 10;

set E := (1,2) (1,3) (1,7) (2,4) (2,7) (3,5) (4,8) (5,6) (5,7) (6,7) (6,9) (7,8) (7,9) (8,10) (9,10) ;

#nodes and edges of the virtual networks
set Nl[1] := 8 4 5 1 ;
set Nl[2] := 7 8 5 9 ;
set Nl[3] := 3 7 2 4 1 ;
set Nl[4] := 8 2 3 6 9 ;
set Nl[5] := 6 10 9 3 ;

set El[1] := (4,8) (4,5) (1,5) (1,8) ;
set El[2] := (7,8) (5,8) (5,9) (7,9) (5,7) (8,9) ;
set El[3] := (3,7) (2,7) (2,4) (1,4) (1,3) ;
set El[4] := (2,8) (2,3) (3,6) (6,9) (8,9) (2,9) (2,6) (3,9) (6,8) (3,8) ;
set El[5] := (6,10) (9,10) (3,9) (3,6) (6,9) (3,10) ;
